161
0 30 22 103 118 19 101 75 100 46 
91 93 81 125 148 23 78 138 67 39 
96 59 122 15 124 102 13 52 119 72 
55 159 61 140 157 8 142 70 32 84 
26 153 92 80 87 133 90 116 24 123 
129 151 2 53 150 51 34 149 109 21 
54 121 74 60 33 110 137 139 66 16 
156 120 107 105 160 130 154 69 7 95 
82 89 17 37 152 71 20 99 136 42 
141 35 114 9 134 56 113 126 132 112 
158 86 28 27 147 98 12 5 94 11 
64 29 155 128 10 135 57 38 144 40 
108 104 25 31 58 1 3 127 63 49 
131 145 62 43 88 47 73 41 45 143 
6 85 111 68 65 76 44 77 83 97 
18 115 50 106 4 36 79 48 117 14 
146 
